p tw 40 84
0 1
0 24
0 14
0 32
0 4
1 10
1 15
1 26
1 32
2 3
2 10
3 10
4 5
4 29
4 24
4 39
4 28
5 13
5 16
6 7
6 11
6 21
6 19
7 23
7 25
7 26
7 24
8 9
8 35
8 36
9 18
9 19
9 13
9 10
9 17
10 23
10 19
11 35
11 34
11 33
11 17
11 13
11 16
12 13
12 18
12 36
12 35
12 37
13 18
13 23
13 17
14 15
14 22
14 33
14 21
15 35
15 20
15 37
15 31
15 24
16 17
16 32
16 20
18 30
18 23
18 34
19 20
19 27
19 36
19 38
20 33
20 25
21 32
22 23
24 32
25 34
25 33
26 33
26 32
27 28
27 32
31 32
35 38
36 37
